\ENCODING=ISO-8859-1
\Problem name: IloCplex

Minimize
 obj: - 0.759 x_1_1 + 0.4124 x_1_2 + 0.7353 x_1_3 + 0.0959 x_1_4 - 0.5028 x_1_5
      + 0.4124 x_2_1 + 0.1498 x_2_2 + 0.0129 x_2_3 - 0.3608 x_2_4
      + 0.2109 x_2_5 + 0.7353 x_3_1 + 0.0129 x_3_2 - 0.914 x_3_3 - 0.412 x_3_4
      + 0.1673 x_3_5 + 0.0959 x_4_1 - 0.3608 x_4_2 - 0.412 x_4_3 + 0.7516 x_4_4
      + 0.1118 x_4_5 - 0.5028 x_5_1 + 0.2109 x_5_2 + 0.1673 x_5_3
      + 0.1118 x_5_4 - 0.2621 x_5_5 + x26 + x28
Subject To
 c1:   = 0
 c2:  - x_1_2 + x_2_1  = 0
 c3:   = 0
 c4:  - x_1_3 + x_3_1  = 0
 c5:  - x_2_3 + x_3_2  = 0
 c6:   = 0
 c7:  - x_1_4 + x_4_1  = 0
 c8:  - x_2_4 + x_4_2  = 0
 c9:  - x_3_4 + x_4_3  = 0
 c10:  = 0
 c11: - x_1_5 + x_5_1  = 0
 c12: - x_2_5 + x_5_2  = 0
 c13: - x_3_5 + x_5_3  = 0
 c14: - x_4_5 + x_5_4  = 0
 c15:  = 0
 c16: x_1_1 + x_2_2 + x_3_3 + x_4_4 + x_5_5 <= 5
 c17: x_1_1 - 2 x_2_1 + x_2_2 >= 0
 c18: x_1_1 + 2 x_2_1 + x_2_2 >= 0
 c19: x_1_1 - 2 x_3_1 + x_3_3 >= 0
 c20: x_1_1 + 2 x_3_1 + x_3_3 >= 0
 c21: x_1_1 - 2 x_4_1 + x_4_4 >= 0
 c22: x_1_1 + 2 x_4_1 + x_4_4 >= 0
 c23: x_1_1 - 2 x_5_1 + x_5_5 >= 0
 c24: x_1_1 + 2 x_5_1 + x_5_5 >= 0
 c25: x_2_2 - 2 x_3_2 + x_3_3 >= 0
 c26: x_2_2 + 2 x_3_2 + x_3_3 >= 0
 c27: x_2_2 - 2 x_4_2 + x_4_4 >= 0
 c28: x_2_2 + 2 x_4_2 + x_4_4 >= 0
 c29: x_2_2 - 2 x_5_2 + x_5_5 >= 0
 c30: x_2_2 + 2 x_5_2 + x_5_5 >= 0
 c31: x_3_3 - 2 x_4_3 + x_4_4 >= 0
 c32: x_3_3 + 2 x_4_3 + x_4_4 >= 0
 c33: x_3_3 - 2 x_5_3 + x_5_5 >= 0
 c34: x_3_3 + 2 x_5_3 + x_5_5 >= 0
 c35: x_4_4 - 2 x_5_4 + x_5_5 >= 0
 c36: x_4_4 + 2 x_5_4 + x_5_5 >= 0
Bounds
      x_1_2 Free
      x_1_3 Free
      x_1_4 Free
      x_1_5 Free
      x_2_1 Free
      x_2_3 Free
      x_2_4 Free
      x_2_5 Free
      x_3_1 Free
      x_3_2 Free
      x_3_4 Free
      x_3_5 Free
      x_4_1 Free
      x_4_2 Free
      x_4_3 Free
      x_4_5 Free
      x_5_1 Free
      x_5_2 Free
      x_5_3 Free
      x_5_4 Free
 0 <= x26 <= 1
      x28 = 0
Binaries
 x26 
End
